(set-info :smt-lib-version 2.6)
(set-logic QF_DT)
(set-info :source |
Generated by: Federico Mora
Generated on: 2023-07-20
Generator: z3 Python bindings via UCLID5 Python API
Application: Blocksworld Automated Reasoning Problems.
Target solvers: Algaroba, cvc5, Z3, Princess
Publications: Shah, Mora and Seshia. An Eager Satisfiability Modulo Theories Solver for Algebraic Datatypes. AAAI ’24 |)
(set-info :license "https://creativecommons.org/licenses/by/4.0/")
(set-info :category "industrial")
(set-info :status unsat) 
(declare-datatypes ((Enum_A_B_C_D_E_F 0)) (((A) (B) (C) (D) (E) (F))))
(declare-datatypes ((Tower 0)) (((stack (top Enum_A_B_C_D_E_F) (rest Tower)) (empty))))
(declare-datatypes ((Record_left_center_right 0)) (((Record_left_center_right (left Tower) (center Tower) (right Tower)))))
(declare-datatypes ((Enum_left-to-center_left-to-right_center-to-left_center-to-right_right-to-left_right-to-center 0)) (((left-to-center) (left-to-right) (center-to-left) (center-to-right) (right-to-left) (right-to-center))))
(declare-fun s () Record_left_center_right)
(declare-fun s_tmp () Record_left_center_right)
(declare-fun c () Enum_left-to-center_left-to-right_center-to-left_center-to-right_right-to-left_right-to-center)
(declare-fun c_tmp () Enum_left-to-center_left-to-right_center-to-left_center-to-right_right-to-left_right-to-center)
(declare-fun s_tmp_ () Record_left_center_right)
(declare-fun s_tmp__ () Record_left_center_right)
(declare-fun s_tmp___ () Record_left_center_right)
(declare-fun c!0 () Enum_left-to-center_left-to-right_center-to-left_center-to-right_right-to-left_right-to-center)
(declare-fun c_tmp____ () Enum_left-to-center_left-to-right_center-to-left_center-to-right_right-to-left_right-to-center)
(declare-fun s_ () Record_left_center_right)
(declare-fun c_ () Enum_left-to-center_left-to-right_center-to-left_center-to-right_right-to-left_right-to-center)
(declare-fun c!1 () Enum_left-to-center_left-to-right_center-to-left_center-to-right_right-to-left_right-to-center)
(declare-fun c__ () Enum_left-to-center_left-to-right_center-to-left_center-to-right_right-to-left_right-to-center)
(declare-fun s__ () Record_left_center_right)
(declare-fun c!2 () Enum_left-to-center_left-to-right_center-to-left_center-to-right_right-to-left_right-to-center)
(declare-fun c___ () Enum_left-to-center_left-to-right_center-to-left_center-to-right_right-to-left_right-to-center)
(declare-fun s___ () Record_left_center_right)
(declare-fun c!3 () Enum_left-to-center_left-to-right_center-to-left_center-to-right_right-to-left_right-to-center)
(declare-fun c____ () Enum_left-to-center_left-to-right_center-to-left_center-to-right_right-to-left_right-to-center)
(declare-fun s____ () Record_left_center_right)
(declare-fun c!4 () Enum_left-to-center_left-to-right_center-to-left_center-to-right_right-to-left_right-to-center)
(declare-fun c_____ () Enum_left-to-center_left-to-right_center-to-left_center-to-right_right-to-left_right-to-center)
(declare-fun s_____ () Record_left_center_right)
(declare-fun c!5 () Enum_left-to-center_left-to-right_center-to-left_center-to-right_right-to-left_right-to-center)
(declare-fun c______ () Enum_left-to-center_left-to-right_center-to-left_center-to-right_right-to-left_right-to-center)
(declare-fun s______ () Record_left_center_right)
(assert
 (= s_tmp s))
(assert
 (= c_tmp c))
(assert
 (let ((?x19 (stack E empty)))
 (let ((?x18 (stack D ?x19)))
 (let ((?x20 (stack F ?x18)))
 (let ((?x21 (stack C ?x20)))
 (let ((?x22 (stack B ?x21)))
 (let ((?x23 (stack A ?x22)))
 (let ((?x76 (left s_tmp_)))
 (= ?x76 ?x23)))))))))
(assert
 (let ((?x79 (center s_tmp__)))
 (= ?x79 empty)))
(assert
 (let ((?x82 (right s_tmp___)))
 (= ?x82 empty)))
(assert
 (= c_tmp____ c!0))
(assert
 (= s_ s_tmp___))
(assert
 (= c_ c_tmp____))
(assert
 (let ((?x109 (left s_tmp__)))
 (= (left s_tmp___) ?x109)))
(assert
 (let ((?x79 (center s_tmp__)))
 (= (center s_tmp___) ?x79)))
(assert
 (let ((?x113 (center s_tmp_)))
 (= ?x113 (center s_tmp))))
(assert
 (let ((?x116 (right s_tmp_)))
 (= ?x116 (right s_tmp))))
(assert
 (let ((?x76 (left s_tmp_)))
 (let ((?x109 (left s_tmp__)))
 (= ?x109 ?x76))))
(assert
 (let ((?x116 (right s_tmp_)))
 (let ((?x120 (right s_tmp__)))
 (= ?x120 ?x116))))
(assert
 (= c__ c!1))
(assert
 (let ((?x53 (left s_)))
 (let ((?x185 (left s__)))
 (let (($x227 (= ?x185 ?x53)))
 (let ((?x56 (right s_)))
 (let (($x197 ((_ is stack ) ?x56)))
 (let (($x201 (and (= c_ right-to-left) $x197)))
 (let ((?x58 (center s_)))
 (let (($x202 ((_ is stack ) ?x58)))
 (let (($x204 (and (= c_ center-to-right) $x202)))
 (let (($x206 (and (= c_ center-to-left) $x202)))
 (let (($x236 (ite $x206 (= ?x185 (stack (top ?x58) ?x53)) (ite $x204 $x227 (ite $x201 (= ?x185 (stack (top ?x56) ?x53)) $x227)))))
 (let (($x214 (= ?x185 (rest ?x53))))
 (let (($x207 ((_ is stack ) ?x53)))
 (let (($x208 (= c_ left-to-right)))
 (let (($x209 (and $x208 $x207)))
 (let (($x210 (= c_ left-to-center)))
 (let (($x211 (and $x210 $x207)))
 (ite $x211 $x214 (ite $x209 $x214 $x236))))))))))))))))))))
(assert
 (let ((?x56 (right s_)))
 (let ((?x181 (right s__)))
 (let (($x223 (= ?x181 ?x56)))
 (let (($x220 (= ?x181 (rest ?x56))))
 (let (($x197 ((_ is stack ) ?x56)))
 (let (($x199 (and (= c_ right-to-center) $x197)))
 (let (($x201 (and (= c_ right-to-left) $x197)))
 (let ((?x58 (center s_)))
 (let (($x202 ((_ is stack ) ?x58)))
 (let (($x204 (and (= c_ center-to-right) $x202)))
 (let (($x233 (ite $x204 (= ?x181 (stack (top ?x58) ?x56)) (ite $x201 $x220 (ite $x199 $x220 $x223)))))
 (let (($x206 (and (= c_ center-to-left) $x202)))
 (let ((?x53 (left s_)))
 (let (($x207 ((_ is stack ) ?x53)))
 (let (($x208 (= c_ left-to-right)))
 (let (($x209 (and $x208 $x207)))
 (let (($x210 (= c_ left-to-center)))
 (let (($x211 (and $x210 $x207)))
 (ite $x211 (= ?x181 (stack (top ?x53) ?x56)) (ite $x209 $x223 (ite $x206 $x223 $x233))))))))))))))))))))))
(assert
 (let ((?x58 (center s_)))
 (let ((?x187 (center s__)))
 (let (($x225 (= ?x187 ?x58)))
 (let ((?x56 (right s_)))
 (let (($x197 ((_ is stack ) ?x56)))
 (let (($x199 (and (= c_ right-to-center) $x197)))
 (let (($x201 (and (= c_ right-to-left) $x197)))
 (let (($x217 (= ?x187 (rest ?x58))))
 (let (($x202 ((_ is stack ) ?x58)))
 (let (($x204 (and (= c_ center-to-right) $x202)))
 (let (($x232 (ite $x204 $x217 (ite $x201 $x225 (ite $x199 (= ?x187 (stack (top ?x56) ?x58)) $x225)))))
 (let (($x206 (and (= c_ center-to-left) $x202)))
 (let ((?x53 (left s_)))
 (let (($x207 ((_ is stack ) ?x53)))
 (let (($x208 (= c_ left-to-right)))
 (let (($x209 (and $x208 $x207)))
 (let (($x210 (= c_ left-to-center)))
 (let (($x211 (and $x210 $x207)))
 (ite $x211 $x225 (ite $x209 (= ?x187 (stack (top ?x53) ?x58)) (ite $x206 $x217 $x232))))))))))))))))))))))
(assert
 (= c___ c!2))
(assert
 (let ((?x185 (left s__)))
 (let ((?x123 (left s___)))
 (let (($x317 (= ?x123 ?x185)))
 (let ((?x181 (right s__)))
 (let ((?x284 (top ?x181)))
 (let ((?x285 (stack ?x284 ?x185)))
 (let (($x311 (= ?x123 ?x285)))
 (let (($x287 ((_ is stack ) ?x181)))
 (let (($x290 (= c__ right-to-left)))
 (let (($x291 (and $x290 $x287)))
 (let ((?x187 (center s__)))
 (let (($x292 ((_ is stack ) ?x187)))
 (let (($x293 (= c__ center-to-right)))
 (let (($x294 (and $x293 $x292)))
 (let ((?x280 (top ?x187)))
 (let ((?x281 (stack ?x280 ?x185)))
 (let (($x308 (= ?x123 ?x281)))
 (let (($x295 (= c__ center-to-left)))
 (let (($x296 (and $x295 $x292)))
 (let ((?x125 (rest ?x185)))
 (let (($x304 (= ?x123 ?x125)))
 (let (($x297 ((_ is stack ) ?x185)))
 (let (($x298 (= c__ left-to-right)))
 (let (($x299 (and $x298 $x297)))
 (let (($x300 (= c__ left-to-center)))
 (let (($x301 (and $x300 $x297)))
 (ite $x301 $x304 (ite $x299 $x304 (ite $x296 $x308 (ite $x294 $x317 (ite $x291 $x311 $x317))))))))))))))))))))))))))))))))
(assert
 (let ((?x181 (right s__)))
 (let ((?x126 (right s___)))
 (let (($x313 (= ?x126 ?x181)))
 (let ((?x283 (rest ?x181)))
 (let (($x310 (= ?x126 ?x283)))
 (let (($x287 ((_ is stack ) ?x181)))
 (let (($x288 (= c__ right-to-center)))
 (let (($x289 (and $x288 $x287)))
 (let (($x290 (= c__ right-to-left)))
 (let (($x291 (and $x290 $x287)))
 (let ((?x187 (center s__)))
 (let ((?x280 (top ?x187)))
 (let ((?x282 (stack ?x280 ?x181)))
 (let (($x309 (= ?x126 ?x282)))
 (let (($x292 ((_ is stack ) ?x187)))
 (let (($x293 (= c__ center-to-right)))
 (let (($x294 (and $x293 $x292)))
 (let (($x295 (= c__ center-to-left)))
 (let (($x296 (and $x295 $x292)))
 (let ((?x185 (left s__)))
 (let (($x297 ((_ is stack ) ?x185)))
 (let (($x298 (= c__ left-to-right)))
 (let (($x299 (and $x298 $x297)))
 (let (($x330 (ite $x299 $x313 (ite $x296 $x313 (ite $x294 $x309 (ite $x291 $x310 (ite $x289 $x310 $x313)))))))
 (let ((?x179 (top ?x185)))
 (let ((?x276 (stack ?x179 ?x181)))
 (let (($x305 (= ?x126 ?x276)))
 (let (($x300 (= c__ left-to-center)))
 (let (($x301 (and $x300 $x297)))
 (ite $x301 $x305 $x330)))))))))))))))))))))))))))))))
(assert
 (let ((?x187 (center s__)))
 (let ((?x277 (center s___)))
 (let (($x315 (= ?x277 ?x187)))
 (let ((?x181 (right s__)))
 (let ((?x284 (top ?x181)))
 (let ((?x286 (stack ?x284 ?x187)))
 (let (($x312 (= ?x277 ?x286)))
 (let (($x287 ((_ is stack ) ?x181)))
 (let (($x288 (= c__ right-to-center)))
 (let (($x289 (and $x288 $x287)))
 (let (($x290 (= c__ right-to-left)))
 (let (($x291 (and $x290 $x287)))
 (let ((?x279 (rest ?x187)))
 (let (($x307 (= ?x277 ?x279)))
 (let (($x292 ((_ is stack ) ?x187)))
 (let (($x293 (= c__ center-to-right)))
 (let (($x294 (and $x293 $x292)))
 (let (($x295 (= c__ center-to-left)))
 (let (($x296 (and $x295 $x292)))
 (let ((?x185 (left s__)))
 (let ((?x179 (top ?x185)))
 (let ((?x278 (stack ?x179 ?x187)))
 (let (($x306 (= ?x277 ?x278)))
 (let (($x297 ((_ is stack ) ?x185)))
 (let (($x298 (= c__ left-to-right)))
 (let (($x299 (and $x298 $x297)))
 (let (($x329 (ite $x299 $x306 (ite $x296 $x307 (ite $x294 $x307 (ite $x291 $x315 (ite $x289 $x312 $x315)))))))
 (let (($x300 (= c__ left-to-center)))
 (let (($x301 (and $x300 $x297)))
 (ite $x301 $x315 $x329)))))))))))))))))))))))))))))))
(assert
 (= c____ c!3))
(assert
 (let ((?x123 (left s___)))
 (let ((?x243 (left s____)))
 (let (($x455 (= ?x243 ?x123)))
 (let ((?x126 (right s___)))
 (let ((?x422 (top ?x126)))
 (let ((?x423 (stack ?x422 ?x123)))
 (let (($x449 (= ?x243 ?x423)))
 (let (($x425 ((_ is stack ) ?x126)))
 (let (($x428 (= c___ right-to-left)))
 (let (($x429 (and $x428 $x425)))
 (let ((?x277 (center s___)))
 (let (($x430 ((_ is stack ) ?x277)))
 (let (($x431 (= c___ center-to-right)))
 (let (($x432 (and $x431 $x430)))
 (let ((?x418 (top ?x277)))
 (let ((?x419 (stack ?x418 ?x123)))
 (let (($x446 (= ?x243 ?x419)))
 (let (($x433 (= c___ center-to-left)))
 (let (($x434 (and $x433 $x430)))
 (let ((?x258 (rest ?x123)))
 (let (($x442 (= ?x243 ?x258)))
 (let (($x435 ((_ is stack ) ?x123)))
 (let (($x436 (= c___ left-to-right)))
 (let (($x437 (and $x436 $x435)))
 (let (($x438 (= c___ left-to-center)))
 (let (($x439 (and $x438 $x435)))
 (ite $x439 $x442 (ite $x437 $x442 (ite $x434 $x446 (ite $x432 $x455 (ite $x429 $x449 $x455))))))))))))))))))))))))))))))))
(assert
 (let ((?x126 (right s___)))
 (let ((?x259 (right s____)))
 (let (($x451 (= ?x259 ?x126)))
 (let ((?x421 (rest ?x126)))
 (let (($x448 (= ?x259 ?x421)))
 (let (($x425 ((_ is stack ) ?x126)))
 (let (($x426 (= c___ right-to-center)))
 (let (($x427 (and $x426 $x425)))
 (let (($x428 (= c___ right-to-left)))
 (let (($x429 (and $x428 $x425)))
 (let ((?x277 (center s___)))
 (let ((?x418 (top ?x277)))
 (let ((?x420 (stack ?x418 ?x126)))
 (let (($x447 (= ?x259 ?x420)))
 (let (($x430 ((_ is stack ) ?x277)))
 (let (($x431 (= c___ center-to-right)))
 (let (($x432 (and $x431 $x430)))
 (let (($x433 (= c___ center-to-left)))
 (let (($x434 (and $x433 $x430)))
 (let ((?x123 (left s___)))
 (let (($x435 ((_ is stack ) ?x123)))
 (let (($x436 (= c___ left-to-right)))
 (let (($x437 (and $x436 $x435)))
 (let (($x468 (ite $x437 $x451 (ite $x434 $x451 (ite $x432 $x447 (ite $x429 $x448 (ite $x427 $x448 $x451)))))))
 (let ((?x275 (top ?x123)))
 (let ((?x414 (stack ?x275 ?x126)))
 (let (($x443 (= ?x259 ?x414)))
 (let (($x438 (= c___ left-to-center)))
 (let (($x439 (and $x438 $x435)))
 (ite $x439 $x443 $x468)))))))))))))))))))))))))))))))
(assert
 (let ((?x277 (center s___)))
 (let ((?x415 (center s____)))
 (let (($x453 (= ?x415 ?x277)))
 (let ((?x126 (right s___)))
 (let ((?x422 (top ?x126)))
 (let ((?x424 (stack ?x422 ?x277)))
 (let (($x450 (= ?x415 ?x424)))
 (let (($x425 ((_ is stack ) ?x126)))
 (let (($x426 (= c___ right-to-center)))
 (let (($x427 (and $x426 $x425)))
 (let (($x428 (= c___ right-to-left)))
 (let (($x429 (and $x428 $x425)))
 (let ((?x417 (rest ?x277)))
 (let (($x445 (= ?x415 ?x417)))
 (let (($x430 ((_ is stack ) ?x277)))
 (let (($x431 (= c___ center-to-right)))
 (let (($x432 (and $x431 $x430)))
 (let (($x433 (= c___ center-to-left)))
 (let (($x434 (and $x433 $x430)))
 (let ((?x123 (left s___)))
 (let ((?x275 (top ?x123)))
 (let ((?x416 (stack ?x275 ?x277)))
 (let (($x444 (= ?x415 ?x416)))
 (let (($x435 ((_ is stack ) ?x123)))
 (let (($x436 (= c___ left-to-right)))
 (let (($x437 (and $x436 $x435)))
 (let (($x467 (ite $x437 $x444 (ite $x434 $x445 (ite $x432 $x445 (ite $x429 $x453 (ite $x427 $x450 $x453)))))))
 (let (($x438 (= c___ left-to-center)))
 (let (($x439 (and $x438 $x435)))
 (ite $x439 $x453 $x467)))))))))))))))))))))))))))))))
(assert
 (= c_____ c!4))
(assert
 (let ((?x243 (left s____)))
 (let ((?x333 (left s_____)))
 (let (($x593 (= ?x333 ?x243)))
 (let ((?x259 (right s____)))
 (let ((?x560 (top ?x259)))
 (let ((?x561 (stack ?x560 ?x243)))
 (let (($x587 (= ?x333 ?x561)))
 (let (($x563 ((_ is stack ) ?x259)))
 (let (($x566 (= c____ right-to-left)))
 (let (($x567 (and $x566 $x563)))
 (let ((?x415 (center s____)))
 (let (($x568 ((_ is stack ) ?x415)))
 (let (($x569 (= c____ center-to-right)))
 (let (($x570 (and $x569 $x568)))
 (let ((?x556 (top ?x415)))
 (let ((?x557 (stack ?x556 ?x243)))
 (let (($x584 (= ?x333 ?x557)))
 (let (($x571 (= c____ center-to-left)))
 (let (($x572 (and $x571 $x568)))
 (let ((?x366 (rest ?x243)))
 (let (($x580 (= ?x333 ?x366)))
 (let (($x573 ((_ is stack ) ?x243)))
 (let (($x574 (= c____ left-to-right)))
 (let (($x575 (and $x574 $x573)))
 (let (($x576 (= c____ left-to-center)))
 (let (($x577 (and $x576 $x573)))
 (ite $x577 $x580 (ite $x575 $x580 (ite $x572 $x584 (ite $x570 $x593 (ite $x567 $x587 $x593))))))))))))))))))))))))))))))))
(assert
 (let ((?x259 (right s____)))
 (let ((?x367 (right s_____)))
 (let (($x589 (= ?x367 ?x259)))
 (let ((?x559 (rest ?x259)))
 (let (($x586 (= ?x367 ?x559)))
 (let (($x563 ((_ is stack ) ?x259)))
 (let (($x564 (= c____ right-to-center)))
 (let (($x565 (and $x564 $x563)))
 (let (($x566 (= c____ right-to-left)))
 (let (($x567 (and $x566 $x563)))
 (let ((?x415 (center s____)))
 (let ((?x556 (top ?x415)))
 (let ((?x558 (stack ?x556 ?x259)))
 (let (($x585 (= ?x367 ?x558)))
 (let (($x568 ((_ is stack ) ?x415)))
 (let (($x569 (= c____ center-to-right)))
 (let (($x570 (and $x569 $x568)))
 (let (($x571 (= c____ center-to-left)))
 (let (($x572 (and $x571 $x568)))
 (let ((?x243 (left s____)))
 (let (($x573 ((_ is stack ) ?x243)))
 (let (($x574 (= c____ left-to-right)))
 (let (($x575 (and $x574 $x573)))
 (let (($x606 (ite $x575 $x589 (ite $x572 $x589 (ite $x570 $x585 (ite $x567 $x586 (ite $x565 $x586 $x589)))))))
 (let ((?x413 (top ?x243)))
 (let ((?x552 (stack ?x413 ?x259)))
 (let (($x581 (= ?x367 ?x552)))
 (let (($x576 (= c____ left-to-center)))
 (let (($x577 (and $x576 $x573)))
 (ite $x577 $x581 $x606)))))))))))))))))))))))))))))))
(assert
 (let ((?x415 (center s____)))
 (let ((?x553 (center s_____)))
 (let (($x591 (= ?x553 ?x415)))
 (let ((?x259 (right s____)))
 (let ((?x560 (top ?x259)))
 (let ((?x562 (stack ?x560 ?x415)))
 (let (($x588 (= ?x553 ?x562)))
 (let (($x563 ((_ is stack ) ?x259)))
 (let (($x564 (= c____ right-to-center)))
 (let (($x565 (and $x564 $x563)))
 (let (($x566 (= c____ right-to-left)))
 (let (($x567 (and $x566 $x563)))
 (let ((?x555 (rest ?x415)))
 (let (($x583 (= ?x553 ?x555)))
 (let (($x568 ((_ is stack ) ?x415)))
 (let (($x569 (= c____ center-to-right)))
 (let (($x570 (and $x569 $x568)))
 (let (($x571 (= c____ center-to-left)))
 (let (($x572 (and $x571 $x568)))
 (let ((?x243 (left s____)))
 (let ((?x413 (top ?x243)))
 (let ((?x554 (stack ?x413 ?x415)))
 (let (($x582 (= ?x553 ?x554)))
 (let (($x573 ((_ is stack ) ?x243)))
 (let (($x574 (= c____ left-to-right)))
 (let (($x575 (and $x574 $x573)))
 (let (($x605 (ite $x575 $x582 (ite $x572 $x583 (ite $x570 $x583 (ite $x567 $x591 (ite $x565 $x588 $x591)))))))
 (let (($x576 (= c____ left-to-center)))
 (let (($x577 (and $x576 $x573)))
 (ite $x577 $x591 $x605)))))))))))))))))))))))))))))))
(assert
 (= c______ c!5))
(assert
 (let ((?x333 (left s_____)))
 (let ((?x471 (left s______)))
 (let (($x731 (= ?x471 ?x333)))
 (let ((?x367 (right s_____)))
 (let ((?x698 (top ?x367)))
 (let ((?x699 (stack ?x698 ?x333)))
 (let (($x725 (= ?x471 ?x699)))
 (let (($x701 ((_ is stack ) ?x367)))
 (let (($x704 (= c_____ right-to-left)))
 (let (($x705 (and $x704 $x701)))
 (let ((?x553 (center s_____)))
 (let (($x706 ((_ is stack ) ?x553)))
 (let (($x707 (= c_____ center-to-right)))
 (let (($x708 (and $x707 $x706)))
 (let ((?x694 (top ?x553)))
 (let ((?x695 (stack ?x694 ?x333)))
 (let (($x722 (= ?x471 ?x695)))
 (let (($x709 (= c_____ center-to-left)))
 (let (($x710 (and $x709 $x706)))
 (let ((?x504 (rest ?x333)))
 (let (($x718 (= ?x471 ?x504)))
 (let (($x711 ((_ is stack ) ?x333)))
 (let (($x712 (= c_____ left-to-right)))
 (let (($x713 (and $x712 $x711)))
 (let (($x714 (= c_____ left-to-center)))
 (let (($x715 (and $x714 $x711)))
 (ite $x715 $x718 (ite $x713 $x718 (ite $x710 $x722 (ite $x708 $x731 (ite $x705 $x725 $x731))))))))))))))))))))))))))))))))
(assert
 (let ((?x367 (right s_____)))
 (let ((?x505 (right s______)))
 (let (($x727 (= ?x505 ?x367)))
 (let ((?x697 (rest ?x367)))
 (let (($x724 (= ?x505 ?x697)))
 (let (($x701 ((_ is stack ) ?x367)))
 (let (($x702 (= c_____ right-to-center)))
 (let (($x703 (and $x702 $x701)))
 (let (($x704 (= c_____ right-to-left)))
 (let (($x705 (and $x704 $x701)))
 (let ((?x553 (center s_____)))
 (let ((?x694 (top ?x553)))
 (let ((?x696 (stack ?x694 ?x367)))
 (let (($x723 (= ?x505 ?x696)))
 (let (($x706 ((_ is stack ) ?x553)))
 (let (($x707 (= c_____ center-to-right)))
 (let (($x708 (and $x707 $x706)))
 (let (($x709 (= c_____ center-to-left)))
 (let (($x710 (and $x709 $x706)))
 (let ((?x333 (left s_____)))
 (let (($x711 ((_ is stack ) ?x333)))
 (let (($x712 (= c_____ left-to-right)))
 (let (($x713 (and $x712 $x711)))
 (let (($x744 (ite $x713 $x727 (ite $x710 $x727 (ite $x708 $x723 (ite $x705 $x724 (ite $x703 $x724 $x727)))))))
 (let ((?x551 (top ?x333)))
 (let ((?x690 (stack ?x551 ?x367)))
 (let (($x719 (= ?x505 ?x690)))
 (let (($x714 (= c_____ left-to-center)))
 (let (($x715 (and $x714 $x711)))
 (ite $x715 $x719 $x744)))))))))))))))))))))))))))))))
(assert
 (let ((?x553 (center s_____)))
 (let ((?x691 (center s______)))
 (let (($x729 (= ?x691 ?x553)))
 (let ((?x367 (right s_____)))
 (let ((?x698 (top ?x367)))
 (let ((?x700 (stack ?x698 ?x553)))
 (let (($x726 (= ?x691 ?x700)))
 (let (($x701 ((_ is stack ) ?x367)))
 (let (($x702 (= c_____ right-to-center)))
 (let (($x703 (and $x702 $x701)))
 (let (($x704 (= c_____ right-to-left)))
 (let (($x705 (and $x704 $x701)))
 (let ((?x693 (rest ?x553)))
 (let (($x721 (= ?x691 ?x693)))
 (let (($x706 ((_ is stack ) ?x553)))
 (let (($x707 (= c_____ center-to-right)))
 (let (($x708 (and $x707 $x706)))
 (let (($x709 (= c_____ center-to-left)))
 (let (($x710 (and $x709 $x706)))
 (let ((?x333 (left s_____)))
 (let ((?x551 (top ?x333)))
 (let ((?x692 (stack ?x551 ?x553)))
 (let (($x720 (= ?x691 ?x692)))
 (let (($x711 ((_ is stack ) ?x333)))
 (let (($x712 (= c_____ left-to-right)))
 (let (($x713 (and $x712 $x711)))
 (let (($x743 (ite $x713 $x720 (ite $x710 $x721 (ite $x708 $x721 (ite $x705 $x729 (ite $x703 $x726 $x729)))))))
 (let (($x714 (= c_____ left-to-center)))
 (let (($x715 (and $x714 $x711)))
 (ite $x715 $x729 $x743)))))))))))))))))))))))))))))))
(assert
 (let ((?x29 (stack C empty)))
 (let ((?x505 (right s______)))
 (let (($x747 (= ?x505 ?x29)))
 (let ((?x28 (stack D (stack F empty))))
 (let ((?x691 (center s______)))
 (let (($x778 (= ?x691 ?x28)))
 (let ((?x26 (stack B (stack E (stack A empty)))))
 (let ((?x471 (left s______)))
 (let (($x779 (= ?x471 ?x26)))
 (let (($x781 (not (and $x779 $x778 $x747))))
 (not $x781))))))))))))
(check-sat)
(exit)
